5 5
0 86 2 11 4 4 1 58 3 96
4 40 2 58 0 88 1 98 3 67
3 38 4 2 0 87 1 40 2 84
2 56 3 72 1 35 0 49 4 67
3 96 4 95 0 44 2 31 1 65
-1
0 1 3 5
0 2 5
0 3 5
0 1 4 5
0 1 2 4 5
-2
103 103 298
125 512
177 296
71 235 338
103 268 400 444

426 6
0 12 7 22 18
3 13 17 8 24
15 1 6 23 14
10 20 16 4 9
11 5 2 21 19
